
Gurobi 9.5.2 (mac64[arm]) logging started Fri Apr 28 18:08:11 2023

Set parameter LogFile to value "Java/output/iterative_model_2_machine/scenario_seed_3_nJob_30_machineCount_2/mip_increment_1/log.txt"
Gurobi Optimizer version 9.5.2 build v9.5.2rc0 (mac64[arm])
Thread count: 8 physical cores, 8 logical processors, using up to 8 threads
Optimize a model with 1430 rows, 6900 columns and 79628 nonzeros
Model fingerprint: 0x3fa8296c
Variable types: 0 continuous, 6900 integer (6900 binary)
Coefficient statistics:
  Matrix range     [1e+00, 1e+02]
  Objective range  [2e+01, 2e+06]
  Bounds range     [1e+00, 1e+00]
  RHS range        [1e+00, 1e+00]
Found heuristic solution: objective 7123648.0000
Presolve removed 400 rows and 1787 columns
Presolve time: 0.11s
Presolved: 1030 rows, 5113 columns, 57648 nonzeros
Variable types: 0 continuous, 5113 integer (5113 binary)
Found heuristic solution: objective 7102000.0000

Root relaxation: objective 1.241262e+05, 1014 iterations, 0.03 seconds (0.05 work units)

    Nodes    |    Current Node    |     Objective Bounds      |     Work
 Expl Unexpl |  Obj  Depth IntInf | Incumbent    BestBd   Gap | It/Node Time

     0     0 124126.154    0   71 7102000.00 124126.154  98.3%     -    0s
H    0     0                    2359728.0000 124126.154  94.7%     -    0s
H    0     0                    990976.00000 124126.154  87.5%     -    0s
H    0     0                    349920.00000 124126.154  64.5%     -    0s
     0     0 136305.071    0  110 349920.000 136305.071  61.0%     -    0s
     0     0 136305.071    0   71 349920.000 136305.071  61.0%     -    0s
H    0     0                    262752.00000 136305.071  48.1%     -    0s
     0     0 138699.981    0  120 262752.000 138699.981  47.2%     -    0s
H    0     0                    246800.00000 138699.981  43.8%     -    0s
     0     0 139095.700    0  110 246800.000 139095.700  43.6%     -    0s
     0     0 139095.713    0  114 246800.000 139095.713  43.6%     -    0s
     0     0 141779.924    0  126 246800.000 141779.924  42.6%     -    0s
     0     0 142322.456    0  133 246800.000 142322.456  42.3%     -    0s
     0     0 142330.079    0  135 246800.000 142330.079  42.3%     -    0s
     0     0 142330.079    0  135 246800.000 142330.079  42.3%     -    0s
H    0     0                    245392.00000 142330.079  42.0%     -    0s
     0     0 148761.915    0  136 245392.000 148761.915  39.4%     -    0s
H    0     0                    245248.00000 148761.915  39.3%     -    0s
H    0     0                    240880.00000 148761.915  38.2%     -    0s
H    0     0                    240736.00000 148761.915  38.2%     -    0s
H    0     0                    240656.00000 148761.915  38.2%     -    0s
     0     0 152026.195    0  139 240656.000 152026.195  36.8%     -    0s
     0     0 152616.800    0  142 240656.000 152616.800  36.6%     -    0s
     0     0 152822.446    0  150 240656.000 152822.446  36.5%     -    0s
     0     0 152855.558    0  153 240656.000 152855.558  36.5%     -    0s
     0     0 152855.558    0  153 240656.000 152855.558  36.5%     -    0s
     0     0 160203.552    0  149 240656.000 160203.552  33.4%     -    0s
     0     0 162118.143    0  163 240656.000 162118.143  32.6%     -    0s
     0     0 163005.726    0  163 240656.000 163005.726  32.3%     -    0s
     0     0 163416.908    0  184 240656.000 163416.908  32.1%     -    0s
     0     0 163416.908    0  185 240656.000 163416.908  32.1%     -    0s
     0     0 165485.989    0  172 240656.000 165485.989  31.2%     -    0s
     0     0 166121.300    0  201 240656.000 166121.300  31.0%     -    0s
     0     0 166145.791    0  193 240656.000 166145.791  31.0%     -    0s
     0     0 166172.918    0  186 240656.000 166172.918  31.0%     -    0s
     0     0 166178.304    0  188 240656.000 166178.304  30.9%     -    0s
     0     0 168678.062    0  173 240656.000 168678.062  29.9%     -    0s
     0     0 168918.491    0  176 240656.000 168918.491  29.8%     -    0s
     0     0 168932.294    0  183 240656.000 168932.294  29.8%     -    0s
     0     0 169853.874    0  176 240656.000 169853.874  29.4%     -    0s
H    0     0                    208192.00000 169853.874  18.4%     -    1s
     0     0 170008.572    0  178 208192.000 170008.572  18.3%     -    1s
     0     0 170066.093    0  175 208192.000 170066.093  18.3%     -    1s
     0     0 170071.544    0  176 208192.000 170071.544  18.3%     -    1s
     0     0 170746.879    0  172 208192.000 170746.879  18.0%     -    1s
H    0     0                    195184.00000 170746.879  12.5%     -    1s
H    0     0                    190208.00000 170746.879  10.2%     -    1s
     0     0 170918.392    0  153 190208.000 170918.392  10.1%     -    1s
     0     0 170920.924    0  154 190208.000 170920.924  10.1%     -    1s
     0     0 171499.345    0  156 190208.000 171499.345  9.84%     -    1s
     0     0 171499.345    0   74 190208.000 171499.345  9.84%     -    1s
     0     0 171499.345    0  135 190208.000 171499.345  9.84%     -    1s
     0     0 171499.345    0  132 190208.000 171499.345  9.84%     -    1s
     0     0 171499.345    0  150 190208.000 171499.345  9.84%     -    1s
     0     0 171499.345    0  159 190208.000 171499.345  9.84%     -    1s
     0     0 171603.202    0  172 190208.000 171603.202  9.78%     -    1s
     0     0 171616.144    0  170 190208.000 171616.144  9.77%     -    1s
     0     0 171618.116    0  172 190208.000 171618.116  9.77%     -    1s
     0     0 172566.915    0  166 190208.000 172566.915  9.27%     -    1s
     0     0 172696.264    0  174 190208.000 172696.264  9.21%     -    1s
     0     0 172753.169    0  171 190208.000 172753.169  9.18%     -    1s
     0     0 172761.648    0  179 190208.000 172761.648  9.17%     -    1s
     0     0 173306.008    0  183 190208.000 173306.008  8.89%     -    1s
     0     0 173349.094    0  182 190208.000 173349.094  8.86%     -    1s
     0     0 173349.212    0  183 190208.000 173349.212  8.86%     -    1s
     0     0 173710.671    0  166 190208.000 173710.671  8.67%     -    1s
     0     0 173723.802    0  164 190208.000 173723.802  8.67%     -    1s
     0     0 173860.603    0  164 190208.000 173860.603  8.59%     -    1s
     0     0 173860.603    0  164 190208.000 173860.603  8.59%     -    1s
     0     2 173880.942    0  162 190208.000 173880.942  8.58%     -    1s
H   80    51                    183408.00000 177733.373  3.09%   161    1s
*  107    35               8    183168.00000 178907.059  2.33%   132    1s
*  117    22              11    182272.00000 178907.059  1.85%   125    1s
*  164     2               6    181424.00000 179725.919  0.94%   104    1s

Cutting planes:
  Cover: 2
  Clique: 27
  MIR: 55
  StrongCG: 22
  GUB cover: 43
  Zero half: 8
  Mod-K: 2
  RLT: 1

Explored 171 nodes (28090 simplex iterations) in 1.73 seconds (2.90 work units)
Thread count was 8 (of 8 available processors)

Solution count 10: 181424 182272 183168 ... 240880

Optimal solution found (tolerance 1.00e-04)
Best objective 1.814240000000e+05, best bound 1.814240000000e+05, gap 0.0000%

Gurobi 9.5.2 (mac64[arm]) logging started Fri Apr 28 18:08:13 2023

Set parameter LogFile to value "Java/output/iterative_model_2_machine/scenario_seed_3_nJob_30_machineCount_2/mip_increment_1/log.txt"
Gurobi Optimizer version 9.5.2 build v9.5.2rc0 (mac64[arm])
Thread count: 8 physical cores, 8 logical processors, using up to 8 threads
Optimize a model with 1420 rows, 4084 columns and 43890 nonzeros
Model fingerprint: 0x6cb89efc
Variable types: 0 continuous, 4084 integer (4084 binary)
Coefficient statistics:
  Matrix range     [1e+00, 1e+02]
  Objective range  [1e+02, 2e+05]
  Bounds range     [1e+00, 1e+00]
  RHS range        [1e+00, 1e+00]
Presolve removed 669 rows and 808 columns
Presolve time: 0.06s
Presolved: 751 rows, 3276 columns, 33946 nonzeros
Variable types: 0 continuous, 3276 integer (3274 binary)

Root relaxation: objective 3.556126e+04, 722 iterations, 0.01 seconds (0.02 work units)

    Nodes    |    Current Node    |     Objective Bounds      |     Work
 Expl Unexpl |  Obj  Depth IntInf | Incumbent    BestBd   Gap | It/Node Time

     0     0 35561.2576    0   48          - 35561.2576      -     -    0s
H    0     0                    61604.000000 35561.2576  42.3%     -    0s
H    0     0                    55324.000000 35561.2576  35.7%     -    0s
     0     0 36382.2183    0   58 55324.0000 36382.2183  34.2%     -    0s
     0     0 36382.2183    0   39 55324.0000 36382.2183  34.2%     -    0s
     0     0 36923.7073    0   66 55324.0000 36923.7073  33.3%     -    0s
     0     0 37112.4720    0   63 55324.0000 37112.4720  32.9%     -    0s
     0     0 40162.6098    0   74 55324.0000 40162.6098  27.4%     -    0s
     0     0 42092.1271    0   62 55324.0000 42092.1271  23.9%     -    0s
     0     0 42135.4609    0   69 55324.0000 42135.4609  23.8%     -    0s
     0     0 42228.2170    0   68 55324.0000 42228.2170  23.7%     -    0s
     0     0 42254.9607    0   65 55324.0000 42254.9607  23.6%     -    0s
H    0     0                    55288.000000 43628.2795  21.1%     -    0s
H    0     0                    55184.000000 43833.5000  20.6%     -    0s
     0     0 43833.5000    0   69 55184.0000 43833.5000  20.6%     -    0s
H    0     0                    52908.000000 43833.5000  17.2%     -    0s
     0     0 44108.2500    0   66 52908.0000 44108.2500  16.6%     -    0s
     0     0 44159.2382    0   67 52908.0000 44159.2382  16.5%     -    0s
     0     0 46326.6793    0   72 52908.0000 46326.6793  12.4%     -    0s
     0     0 47347.1468    0   84 52908.0000 47347.1468  10.5%     -    0s
     0     0 47410.2919    0   82 52908.0000 47410.2919  10.4%     -    0s
     0     0 47411.8226    0   84 52908.0000 47411.8226  10.4%     -    0s
     0     0 48330.5797    0   74 52908.0000 48330.5797  8.65%     -    0s
     0     0 48335.2397    0   90 52908.0000 48335.2397  8.64%     -    0s
     0     0 48335.2397    0   90 52908.0000 48335.2397  8.64%     -    0s
     0     0 49911.7023    0   97 52908.0000 49911.7023  5.66%     -    0s
     0     0 49952.6536    0   90 52908.0000 49952.6536  5.59%     -    0s
     0     0 50017.4102    0   99 52908.0000 50017.4102  5.46%     -    0s
     0     0 50045.8399    0  100 52908.0000 50045.8399  5.41%     -    0s
     0     0 51400.9841    0   74 52908.0000 51400.9841  2.85%     -    0s
     0     0 51400.9841    0   37 52908.0000 51400.9841  2.85%     -    0s
     0     0 52479.0857    0   23 52908.0000 52479.0857  0.81%     -    0s

Explored 1 nodes (3877 simplex iterations) in 0.50 seconds (0.77 work units)
Thread count was 8 (of 8 available processors)

Solution count 7: 52908 53272 53272 ... 61604

Optimal solution found (tolerance 1.00e-04)
Best objective 5.290800000000e+04, best bound 5.290800000000e+04, gap 0.0000%

Gurobi 9.5.2 (mac64[arm]) logging started Fri Apr 28 18:08:14 2023

Set parameter LogFile to value "Java/output/iterative_model_2_machine/scenario_seed_3_nJob_30_machineCount_2/mip_increment_1/log.txt"
Gurobi Optimizer version 9.5.2 build v9.5.2rc0 (mac64[arm])
Thread count: 8 physical cores, 8 logical processors, using up to 8 threads
Optimize a model with 1424 rows, 3048 columns and 32695 nonzeros
Model fingerprint: 0x848747ea
Variable types: 0 continuous, 3048 integer (3048 binary)
Coefficient statistics:
  Matrix range     [1e+00, 1e+02]
  Objective range  [5e+01, 3e+04]
  Bounds range     [1e+00, 1e+00]
  RHS range        [1e+00, 1e+00]
Presolve removed 958 rows and 1420 columns
Presolve time: 0.04s
Presolved: 466 rows, 1628 columns, 17484 nonzeros
Variable types: 0 continuous, 1628 integer (1628 binary)

Root relaxation: objective 1.817670e+04, 528 iterations, 0.01 seconds (0.01 work units)

    Nodes    |    Current Node    |     Objective Bounds      |     Work
 Expl Unexpl |  Obj  Depth IntInf | Incumbent    BestBd   Gap | It/Node Time

     0     0 18176.6994    0   56          - 18176.6994      -     -    0s
H    0     0                    59936.000000 18176.6994  69.7%     -    0s
H    0     0                    51457.000000 18176.6994  64.7%     -    0s
H    0     0                    38102.000000 18176.6994  52.3%     -    0s
H    0     0                    35046.000000 18176.6994  48.1%     -    0s
H    0     0                    26686.000000 18176.6994  31.9%     -    0s
H    0     0                    26449.000000 18404.5216  30.4%     -    0s
     0     0 18404.5216    0   91 26449.0000 18404.5216  30.4%     -    0s
H    0     0                    26238.000000 18404.5216  29.9%     -    0s
     0     0 18523.6874    0   88 26238.0000 18523.6874  29.4%     -    0s
H    0     0                    24285.000000 18539.2511  23.7%     -    0s
     0     0 18574.5425    0   68 24285.0000 18574.5425  23.5%     -    0s
     0     0 18574.5425    0   66 24285.0000 18574.5425  23.5%     -    0s
H    0     0                    19745.000000 18589.3765  5.85%     -    0s
     0     0 18591.2692    0   83 19745.0000 18591.2692  5.84%     -    0s
     0     0 18591.2692    0   56 19745.0000 18591.2692  5.84%     -    0s
     0     0 18591.2692    0   88 19745.0000 18591.2692  5.84%     -    0s
     0     0 18674.8973    0   97 19745.0000 18674.8973  5.42%     -    0s
     0     0 18690.7581    0   93 19745.0000 18690.7581  5.34%     -    0s
     0     0 18691.0308    0  100 19745.0000 18691.0308  5.34%     -    0s
     0     0 18917.9407    0   96 19745.0000 18917.9407  4.19%     -    0s
H    0     0                    19661.000000 18918.2468  3.78%     -    0s
     0     0 18918.2468    0   98 19661.0000 18918.2468  3.78%     -    0s
     0     0 18918.2468    0   98 19661.0000 18918.2468  3.78%     -    0s
H    0     0                    18942.000000 18918.2468  0.13%     -    0s
     0     0 18918.7143    0  108 18942.0000 18918.7143  0.12%     -    0s
     0     0 18918.7143    0   49 18942.0000 18918.7143  0.12%     -    0s
     0     0 18920.1707    0   58 18942.0000 18920.1707  0.12%     -    0s
     0     0 18920.7941    0   33 18942.0000 18920.7941  0.11%     -    0s
     0     0 18922.6972    0   51 18942.0000 18922.6972  0.10%     -    0s
     0     0 18923.5312    0   66 18942.0000 18923.5312  0.10%     -    0s
     0     0 18923.5312    0   51 18942.0000 18923.5312  0.10%     -    0s
H    0     0                    18938.000000 18927.2917  0.06%     -    0s
     0     0 18927.2917    0   80 18938.0000 18927.2917  0.06%     -    0s
     0     0     cutoff    0      18938.0000 18938.0000  0.00%     -    0s

Cutting planes:
  Gomory: 11
  Cover: 2
  Clique: 12
  MIR: 6
  StrongCG: 4
  GUB cover: 17
  Zero half: 9
  RLT: 1

Explored 1 nodes (3792 simplex iterations) in 0.41 seconds (0.55 work units)
Thread count was 8 (of 8 available processors)

Solution count 10: 18938 18942 18942 ... 35046

Optimal solution found (tolerance 1.00e-04)
Best objective 1.893800000000e+04, best bound 1.893800000000e+04, gap 0.0000%

Gurobi 9.5.2 (mac64[arm]) logging started Fri Apr 28 18:08:14 2023

Set parameter LogFile to value "Java/output/iterative_model_2_machine/scenario_seed_3_nJob_30_machineCount_2/mip_increment_1/log.txt"
Gurobi Optimizer version 9.5.2 build v9.5.2rc0 (mac64[arm])
Thread count: 8 physical cores, 8 logical processors, using up to 8 threads
Optimize a model with 1514 rows, 18860 columns and 212926 nonzeros
Model fingerprint: 0x217ff3c3
Variable types: 0 continuous, 18860 integer (18860 binary)
Coefficient statistics:
  Matrix range     [1e+00, 1e+02]
  Objective range  [1e+00, 2e+06]
  Bounds range     [1e+00, 1e+00]
  RHS range        [1e+00, 1e+00]

Warning: Completing partial solution with 18778 unfixed non-continuous variables out of 18860
User MIP start produced solution with objective 244359 (0.01s)
Loaded user MIP start with objective 244359

Presolve removed 139 rows and 3634 columns
Presolve time: 0.25s
Presolved: 1375 rows, 15226 columns, 172410 nonzeros
Variable types: 0 continuous, 15226 integer (15222 binary)

Root relaxation: objective 1.402429e+05, 9467 iterations, 0.78 seconds (1.64 work units)

    Nodes    |    Current Node    |     Objective Bounds      |     Work
 Expl Unexpl |  Obj  Depth IntInf | Incumbent    BestBd   Gap | It/Node Time

     0     0 140242.916    0  274 244359.000 140242.916  42.6%     -    1s
H    0     0                    244354.00000 140242.916  42.6%     -    1s
H    0     0                    244021.00000 140242.916  42.5%     -    1s
H    0     0                    244020.00000 153489.797  37.1%     -    2s
H    0     0                    244000.00000 153489.797  37.1%     -    2s
     0     0 153489.797    0  360 244000.000 153489.797  37.1%     -    2s
     0     0 154063.581    0  357 244000.000 154063.581  36.9%     -    2s
     0     0 154064.195    0  357 244000.000 154064.195  36.9%     -    2s
     0     0 157919.081    0  403 244000.000 157919.081  35.3%     -    3s
     0     0 159220.599    0  430 244000.000 159220.599  34.7%     -    4s
     0     0 159547.827    0  415 244000.000 159547.827  34.6%     -    4s
     0     0 159556.462    0  452 244000.000 159556.462  34.6%     -    4s
     0     0 159556.554    0  444 244000.000 159556.554  34.6%     -    4s
     0     0 164256.505    0  473 244000.000 164256.505  32.7%     -    5s
     0     0 164534.286    0  464 244000.000 164534.286  32.6%     -    6s
     0     0 164536.222    0  465 244000.000 164536.222  32.6%     -    6s
     0     0 169456.700    0  492 244000.000 169456.700  30.6%     -    7s
H    0     0                    243992.00000 170563.704  30.1%     -    9s
     0     0 170563.704    0  484 243992.000 170563.704  30.1%     -    9s
     0     0 170641.643    0  502 243992.000 170641.643  30.1%     -    9s
     0     0 170678.733    0  498 243992.000 170678.733  30.0%     -    9s
     0     0 170679.500    0  509 243992.000 170679.500  30.0%     -    9s
     0     0 174906.572    0  503 243992.000 174906.572  28.3%     -   11s
H    0     0                    240683.00000 174906.572  27.3%     -   11s
     0     0 175791.793    0  512 240683.000 175791.793  27.0%     -   12s
     0     0 175997.041    0  500 240683.000 175997.041  26.9%     -   13s
     0     0 176035.508    0  492 240683.000 176035.508  26.9%     -   13s
     0     0 176045.666    0  496 240683.000 176045.666  26.9%     -   13s
     0     0 179398.663    0  517 240683.000 179398.663  25.5%     -   15s
H    0     0                    240559.00000 179398.663  25.4%     -   15s
     0     0 179812.470    0  556 240559.000 179812.470  25.3%     -   16s
     0     0 180001.019    0  551 240559.000 180001.019  25.2%     -   16s
     0     0 180135.914    0  579 240559.000 180135.914  25.1%     -   17s
     0     0 180151.977    0  590 240559.000 180151.977  25.1%     -   17s
     0     0 183872.364    0  539 240559.000 183872.364  23.6%     -   20s
     0     0 184398.390    0  562 240559.000 184398.390  23.3%     -   20s
     0     0 184573.061    0  566 240559.000 184573.061  23.3%     -   21s
     0     0 184573.152    0  565 240559.000 184573.152  23.3%     -   21s
     0     0 189555.844    0  520 240559.000 189555.844  21.2%     -   23s
     0     0 190331.038    0  585 240559.000 190331.038  20.9%     -   24s
     0     0 190729.105    0  557 240559.000 190729.105  20.7%     -   25s
     0     0 190767.515    0  554 240559.000 190767.515  20.7%     -   25s
     0     0 190776.156    0  570 240559.000 190776.156  20.7%     -   25s
     0     0 192063.571    0  512 240559.000 192063.571  20.2%     -   27s
     0     0 192063.571    0  263 240559.000 192063.571  20.2%     -   28s
     0     0 192063.571    0  428 240559.000 192063.571  20.2%     -   29s
     0     0 192063.571    0  475 240559.000 192063.571  20.2%     -   31s
     0     0 192063.571    0  504 240559.000 192063.571  20.2%     -   32s
     0     0 192063.571    0  514 240559.000 192063.571  20.2%     -   33s
     0     0 192467.664    0  507 240559.000 192467.664  20.0%     -   33s
     0     0 192490.575    0  500 240559.000 192490.575  20.0%     -   33s
     0     0 192496.891    0  516 240559.000 192496.891  20.0%     -   33s
H    0     0                    240558.00000 192496.891  20.0%     -   34s
     0     0 195290.256    0  554 240558.000 195290.256  18.8%     -   34s
H    0     0                    238363.00000 195290.256  18.1%     -   35s
     0     0 196029.972    0  524 238363.000 196029.972  17.8%     -   35s
     0     0 196153.207    0  554 238363.000 196153.207  17.7%     -   35s
     0     0 196160.486    0  567 238363.000 196160.486  17.7%     -   35s
     0     0 201561.758    0  514 238363.000 201561.758  15.4%     -   38s
     0     0 202773.018    0  577 238363.000 202773.018  14.9%     -   38s
     0     0 203216.136    0  572 238363.000 203216.136  14.7%     -   39s
     0     0 203290.366    0  567 238363.000 203290.366  14.7%     -   39s
     0     0 203311.099    0  539 238363.000 203311.099  14.7%     -   39s
     0     0 205326.802    0  563 238363.000 205326.802  13.9%     -   41s
     0     0 211331.309    0  532 238363.000 211331.309  11.3%     -   41s
     0     0 211883.966    0  534 238363.000 211883.966  11.1%     -   42s
     0     0 211947.703    0  557 238363.000 211947.703  11.1%     -   42s
     0     0 211955.841    0  538 238363.000 211955.841  11.1%     -   42s
     0     0 212701.351    0  590 238363.000 212701.351  10.8%     -   42s
     0     0 212763.115    0  594 238363.000 212763.115  10.7%     -   43s
     0     0 212767.967    0  581 238363.000 212767.967  10.7%     -   43s
     0     0 212873.755    0  565 238363.000 212873.755  10.7%     -   43s
     0     0 212873.755    0  534 238363.000 212873.755  10.7%     -   44s
     0     2 212886.100    0  534 238363.000 212886.100  10.7%     -   45s
     3     8 221657.710    2  528 238363.000 212945.937  10.7%  6008   50s
    15    22 224461.211    4  514 238363.000 213280.478  10.5%  9666   55s
H   31    34                    238356.00000 213320.343  10.5%  7989   57s
H   32    34                    219165.00000 213320.343  2.67%  7914   57s
H   69    20                    219079.00000 214547.564  2.07%  5386   59s
    80    20 217379.434    9  410 219079.000 214547.564  2.07%  4990   60s
H  118    21                    219078.00000 214547.564  2.07%  4160   64s
   128     5     cutoff   10      219078.000 214547.564  2.07%  4105   66s

Cutting planes:
  Gomory: 1
  Cover: 5
  Clique: 101
  MIR: 199
  StrongCG: 93
  GUB cover: 172
  Zero half: 7
  RLT: 15

Explored 151 nodes (864095 simplex iterations) in 67.46 seconds (184.44 work units)
Thread count was 8 (of 8 available processors)

Solution count 10: 219078 219079 219165 ... 244000

Optimal solution found (tolerance 1.00e-04)
Best objective 2.190780000000e+05, best bound 2.190672705440e+05, gap 0.0049%
